30
0   152   155
1   151   153
2   76   79
3   79   79
4   43   41
5   39   38
6   22   19
7   22   22
8   14   10
9   15   13
10   7   10
11   6   9
12   3   5
13   3   3
14   2   7
15   6   2
16   4   6
17   2   4
18   6   1
19   5   2
20   4   4
21   5   2
22   3   2
23   6   2
24   4   3
25   1   4
26   5   6
27   1   2
28   6   6
29   3   1
300
